<instance format="XCSP3" type="CSP">
  <variables>
    <var id="x0"> 1 4 8 11 </var>
    <var id="x1"> 12 </var>
    <var id="x2"> 1 4 8 9 </var>
    <var id="x3"> 9 11 </var>
    <var id="x4"> 1 4 7 11 </var>
    <var id="x5"> 4 8 </var>
    <var id="x6"> 4 7 11 </var>
    <var id="x7"> 0 8 12 13 </var>
    <var id="x8"> 0 3 5 12 </var>
    <var id="x9"> 0 5 13 </var>
    <var id="x10"> 3 5 7 </var>
    <var id="x11"> 7 12 13 </var>
    <var id="x12"> 0 12 13 </var>
    <var id="x13"> 0 3 12 13 </var>
    <var id="x14"> 2 6 12 13 </var>
    <var id="x15"> 4 13 14 </var>
    <var id="x16"> 2 4 6 11 </var>
    <var id="x17"> 4 6 13 </var>
    <var id="x18"> 4 6 11 14 </var>
    <var id="x19"> 4 12..14 </var>
    <var id="x20"> 4 6 12 </var>
    <var id="x21"> 1 4 8 11 13 </var>
    <var id="x22"> 4 8 13 14 </var>
    <var id="x23"> 1 11 </var>
    <var id="x24"> 4 8 13 </var>
    <var id="x25"> 1 9 11 13 </var>
    <var id="x26"> 4 8 9 </var>
    <var id="x27"> 11 13 14 </var>
    <var id="x28"> 1 11 13 </var>
    <var id="x29"> 6 13 </var>
    <var id="x30"> 0 1 6 11 </var>
    <var id="x31"> 0 6 11 13 14 </var>
    <var id="x32"> 6 11 14 </var>
    <var id="x33"> 1 13 14 </var>
    <var id="x34"> 0 1 8 13 14 </var>
    <var id="x35"> 1 4 13 </var>
    <var id="x36"> 1 4..6 13 </var>
    <var id="x37"> 0 4 6 13 14 </var>
    <var id="x38"> 0 1 5 6 </var>
    <var id="x39"> 0 5 6 13 14 </var>
    <var id="x40"> 4..6 14 </var>
    <var id="x41"> 0 1 13 </var>
    <var id="x42"> 4 10 13 </var>
    <var as="x37" id="x43"/>
    <var id="x44"> 4 10 13 14 </var>
    <var id="x45"> 4..6 14 </var>
    <var id="x46"> 0 10 13 </var>
    <var id="x47"> 0 4..6 </var>
    <var id="x48"> 0 13 14 </var>
    <var id="x49"> 4 7 9 </var>
    <var id="x50"> 4..6 </var>
    <var id="x51"> 4 9 </var>
    <var id="x52"> 0 5 6 9 </var>
    <var id="x53"> 0 4..6 </var>
    <var id="x54"> 0 12 </var>
    <var id="x55"> 0 7 </var>
    <var id="x56"> 4 10 11 13 </var>
    <var id="x57"> 2 4 10 11 </var>
    <var id="x58"> 4 5 10 13 </var>
    <var id="x59"> 10 11 13 </var>
    <var id="x60"> 4 5 </var>
    <var id="x61"> 2 3 11 13 </var>
    <var id="x62"> 3 13 </var>
    <var id="x63"> 1 7 10 13 </var>
    <var id="x64"> 1 7 10 </var>
    <var id="x65"> 5 10 13 </var>
    <var id="x66"> 1 7 10 12 13 </var>
    <var id="x67"> 1 10 12 13 </var>
    <var id="x68"> 3 12 13 </var>
    <var id="x69"> 1 3 7 13 </var>
    <var id="x70"> 4 8 13 </var>
    <var id="x71"> 0 4 8 13 </var>
    <var id="x72"> 0 3 </var>
    <var id="x73"> 0 10 13 </var>
    <var id="x74"> 2 4 10 </var>
    <var id="x75"> 4 10 13 </var>
    <var id="x76"> 0 2 3 13 </var>
    <var id="x77"> 7 9..11 13 </var>
    <var id="x78"> 0 6 13 </var>
    <var id="x79"> 3 6 10 13 </var>
    <var id="x80"> 0 3 6 11 </var>
    <var id="x81"> 0 6 9..11 13 </var>
    <var id="x82"> 6 7 10 11 </var>
    <var id="x83"> 0 6 9 </var>
    <var id="x84"> 0 3 7 13 </var>
    <var id="x85"> 6 10 12 </var>
    <var id="x86"> 1 6 12 </var>
    <var id="x87"> 1 4 8 10 14 </var>
    <var id="x88"> 4 6 8 10 </var>
    <var id="x89"> 4 6 8 12 </var>
    <var id="x90"> 12 14 </var>
    <var id="x91"> 1 8 14 </var>
    <var id="x92"> 1 6 11 13 </var>
    <var id="x93"> 6 10 13 </var>
    <var id="x94"> 1 10 13 14 </var>
    <var id="x95"> 1 6 10 11 </var>
    <var id="x96"> 6 11 14 </var>
    <var as="x94" id="x97"/>
    <var id="x98"> 0 6 </var>
    <var id="x99"> 1 5 6 11 </var>
    <var id="x100"> 6 12 </var>
    <var id="x101"> 5 6 10 12 </var>
    <var id="x102"> 1 9 10 </var>
    <var id="x103"> 5 6 9..11 </var>
    <var id="x104"> 1 10 12 </var>
    <var id="x105"> 1 9..12 </var>
  </variables>
  <constraints>
    <group>
      <allDifferent> %... </allDifferent>
      <args> x0 x1 x2 x3 x4 x5 x6 </args>
      <args> x7 x8 x9 x10 x11 x12 x13 </args>
      <args> x14 x15 x16 x17 x18 x19 x20 </args>
      <args> x21 x22 x23 x24 x25 x26 x27 </args>
      <args> x28 x29 x30 x31 x32 x33 x34 </args>
      <args> x35 x36 x37 x38 x39 x40 x41 </args>
      <args> x42 x43 x44 x45 x46 x47 x48 </args>
      <args> x49 x50 x51 x52 x53 x54 x55 </args>
      <args> x56 x57 x58 x59 x60 x61 x62 </args>
      <args> x63 x64 x65 x66 x67 x68 x69 </args>
      <args> x70 x71 x72 x73 x74 x75 x76 </args>
      <args> x77 x78 x79 x80 x81 x82 x83 x84 </args>
      <args> x85 x86 x87 x88 x89 x90 x91 </args>
      <args> x92 x93 x94 x95 x96 x97 x98 </args>
      <args> x99 x100 x101 x102 x103 x104 x105 </args>
      <args> x28 x35 x42 x49 x56 x63 x77 </args>
      <args> x0 x21 x36 x50 x70 x92 x99 </args>
      <args> x7 x22 x37 x43 x71 x78 x100 </args>
      <args> x1 x14 x29 x79 x85 x93 x101 </args>
      <args> x8 x23 x30 x38 x72 x80 x86 </args>
      <args> x2 x15 x44 x51 x87 x94 x102 </args>
      <args> x3 x9 x31 x39 x52 x73 x81 x103 </args>
      <args> x4 x16 x57 x64 x74 x82 x95 </args>
      <args> x5 x17 x24 x53 x58 x65 x88 </args>
      <args> x6 x10 x18 x32 x40 x45 x96 </args>
      <args> x11 x19 x33 x66 x75 x97 x104 </args>
      <args> x12 x25 x41 x46 x59 x67 x105 </args>
      <args> x20 x26 x47 x60 x83 x89 x98 </args>
      <args> x13 x27 x54 x61 x68 x76 x90 </args>
      <args> x34 x48 x55 x62 x69 x84 x91 </args>
    </group>
  </constraints>
</instance>

